; Copyright (c) 2026 The RIINA Authors. All rights reserved.
; Copyright (c) 2026 The RIINA Authors.
; Auto-generated from 02_FORMAL/coq/domains/VerifiedNetworkStack.v (138 assertions)
; Generated by scripts/generate-full-stack.py
; Module: VerifiedNetworkStack

(set-logic ALL)
(set-option :produce-models true)

; TCPState (matches Coq: Inductive TCPState)
(declare-datatypes ((TCPState 0)) (((CLOSED) (LISTEN) (SYN_SENT) (SYN_RECEIVED) (ESTABLISHED) (FIN_WAIT_1) (FIN_WAIT_2) (CLOSE_WAIT) (CLOSING) (LAST_ACK) (TIME_WAIT))))

; SocketState (matches Coq: Inductive SocketState)
(declare-datatypes ((SocketState 0)) (((SockUnbound) (SockBound) (SockListening) (SockConnecting) (SockConnected) (SockClosing) (SockClosed))))

; HandshakeStep (matches Coq: Inductive HandshakeStep)
(declare-datatypes ((HandshakeStep 0)) (((HS_Init) (HS_SynSent) (HS_SynAckRecv) (HS_Complete) (HS_Failed))))

; NetworkSecurity (matches Coq: Record NetworkSecurity)
(declare-datatypes ((NetworkSecurity 0))
  (((mk-network_security (ns_packet_validation Bool) (ns_protocol_compliance Bool) (ns_firewall_enforced Bool) (ns_encryption_in_transit Bool)))))

; NetworkReliability (matches Coq: Record NetworkReliability)
(declare-datatypes ((NetworkReliability 0))
  (((mk-network_reliability (nr_congestion_control Bool) (nr_flow_control Bool) (nr_error_detection Bool) (nr_retransmission Bool)))))

; VerifiedNetStack (matches Coq: Record VerifiedNetStack)
(declare-datatypes ((VerifiedNetStack 0))
  (((mk-verified_net_stack (vns_security NetworkSecurity) (vns_reliability NetworkReliability) (vns_rfc_compliant Bool) (vns_formally_verified Bool)))))

; TCPFlags (matches Coq: Record TCPFlags)
(declare-datatypes ((TCPFlags 0))
  (((mk-tcp_flags (flag_syn Bool) (flag_ack Bool) (flag_fin Bool) (flag_rst Bool) (flag_psh Bool) (flag_urg Bool)))))

; TCPSegment (matches Coq: Record TCPSegment)
(declare-datatypes ((TCPSegment 0))
  (((mk-tcp_segment (seg_seq_num Int) (seg_ack_num Int) (seg_flags TCPFlags) (seg_window Int) (seg_data_len Int)))))

; Buffer (matches Coq: Record Buffer)
(declare-datatypes ((Buffer 0))
  (((mk-buffer (buf_data list) (buf_capacity Int) (buf_position Int)))))

; CongestionState (matches Coq: Record CongestionState)
(declare-datatypes ((CongestionState 0))
  (((mk-congestion_state (cwnd Int) (ssthresh Int) (rtt_est Int) (rto Int)))))

; SocketOptions (matches Coq: Record SocketOptions)
(declare-datatypes ((SocketOptions 0))
  (((mk-socket_options (opt_reuse_addr Bool) (opt_keep_alive Bool) (opt_no_delay Bool) (opt_recv_timeout Int) (opt_send_timeout Int)))))

; Socket (matches Coq: Record Socket)
(declare-datatypes ((Socket 0))
  (((mk-socket (sock_state SocketState) (sock_local_port option) (sock_remote_port option) (sock_tcp_state TCPState) (sock_options SocketOptions)))))

; HandshakeState (matches Coq: Record HandshakeState)
(declare-datatypes ((HandshakeState 0))
  (((mk-handshake_state (hs_step HandshakeStep) (hs_client_isn Int) (hs_server_isn Int)))))

; net_security_sound (matches Coq: Definition net_security_sound)
(define-fun net_security_sound ((s NetworkSecurity)) Bool
  (and (ns_packet_validation s) (ns_protocol_compliance s) (ns_firewall_enforced s) (ns_encryption_in_transit s)))

; net_reliability_sound (matches Coq: Definition net_reliability_sound)
(define-fun net_reliability_sound ((r NetworkReliability)) Bool
  (and (nr_congestion_control r) (nr_flow_control r) (nr_error_detection r) (nr_retransmission r)))

; net_stack_verified (matches Coq: Definition net_stack_verified)
(define-fun net_stack_verified ((n VerifiedNetStack)) Bool
  true)

; riina_net_sec (matches Coq: Definition riina_net_sec)
(define-fun riina_net_sec () NetworkSecurity
  (mk-network_security true true true true))

; riina_net_rel (matches Coq: Definition riina_net_rel)
(define-fun riina_net_rel () NetworkReliability
  (mk-network_reliability true true true true))

; riina_net_stack (matches Coq: Definition riina_net_stack)
(define-fun riina_net_stack () VerifiedNetStack
  (mk-verified_net_stack (riina_net_sec) (riina_net_rel) true true))

; tcp_state_eqb (matches Coq: Definition tcp_state_eqb)
(define-fun tcp_state_eqb () Bool true)

; tcp_transition (matches Coq: Definition tcp_transition)
(define-fun tcp_transition ((st TCPState) (seg TCPSegment) (is_server Bool)) TCPState
  true)

; is_connection_state (matches Coq: Definition is_connection_state)
(define-fun is_connection_state ((s TCPState)) Bool
  true)

; is_data_state (matches Coq: Definition is_data_state)
(define-fun is_data_state ((s TCPState)) Bool
  true)

; is_terminal_state (matches Coq: Definition is_terminal_state)
(define-fun is_terminal_state ((s TCPState)) Bool
  true)

; SEQ_SPACE (matches Coq: Definition SEQ_SPACE)
(define-fun SEQ_SPACE () Int 4294967296)

; seq_lt (matches Coq: Definition seq_lt)
(define-fun seq_lt () Bool true)

; seq_le (matches Coq: Definition seq_le)
(define-fun seq_le () Bool true)

; seq_gt (matches Coq: Definition seq_gt)
(define-fun seq_gt () Bool true)

; seq_ge (matches Coq: Definition seq_ge)
(define-fun seq_ge () Bool true)

; seq_in_window (matches Coq: Definition seq_in_window)
(define-fun seq_in_window () Bool true)

; next_seq (matches Coq: Definition next_seq)
(define-fun next_seq () Int true)

; valid_ack (matches Coq: Definition valid_ack)
(define-fun valid_ack () Bool true)

; buffer_valid (matches Coq: Definition buffer_valid)
(define-fun buffer_valid ((b Buffer)) Prop
  true)

; safe_read (matches Coq: Definition safe_read)
(define-fun safe_read ((b Buffer) (len Int)) Bool
  true)

; safe_write (matches Coq: Definition safe_write)
(define-fun safe_write ((b Buffer) (len Int)) Bool
  true)

; buffer_advance (matches Coq: Definition buffer_advance)
(define-fun buffer_advance ((b Buffer) (n Int)) Buffer
  true)

; TCP_MIN_HEADER (matches Coq: Definition TCP_MIN_HEADER)
(define-fun TCP_MIN_HEADER () Int 20)

; TCP_MAX_HEADER (matches Coq: Definition TCP_MAX_HEADER)
(define-fun TCP_MAX_HEADER () Int 60)

; IP_MIN_HEADER (matches Coq: Definition IP_MIN_HEADER)
(define-fun IP_MIN_HEADER () Int 20)

; ETH_MIN_FRAME (matches Coq: Definition ETH_MIN_FRAME)
(define-fun ETH_MIN_FRAME () Int 14)

; initial_cong_state (matches Coq: Definition initial_cong_state)
(define-fun initial_cong_state ((mss Int)) CongestionState
  true)

; in_slow_start (matches Coq: Definition in_slow_start)
(define-fun in_slow_start ((cs CongestionState)) Bool
  true)

; in_cong_avoid (matches Coq: Definition in_cong_avoid)
(define-fun in_cong_avoid ((cs CongestionState)) Bool
  true)

; aimd_increase (matches Coq: Definition aimd_increase)
(define-fun aimd_increase ((cs CongestionState) (mss Int)) CongestionState
  true)

; aimd_decrease (matches Coq: Definition aimd_decrease)
(define-fun aimd_decrease ((cs CongestionState)) CongestionState
  true)

; FAST_RETRANSMIT_THRESH (matches Coq: Definition FAST_RETRANSMIT_THRESH)
(define-fun FAST_RETRANSMIT_THRESH () Int 3)

; default_sock_opts (matches Coq: Definition default_sock_opts)
(define-fun default_sock_opts () SocketOptions
  (mk-socket_options false false false 0 0))

; new_socket (matches Coq: Definition new_socket)
(define-fun new_socket () Socket
  (mk-socket SockUnbound None None CLOSED (default_sock_opts)))

; sock_state_eqb (matches Coq: Definition sock_state_eqb)
(define-fun sock_state_eqb () Bool true)

; socket_can_send (matches Coq: Definition socket_can_send)
(define-fun socket_can_send ((s Socket)) Bool
  true)

; socket_can_recv (matches Coq: Definition socket_can_recv)
(define-fun socket_can_recv ((s Socket)) Bool
  true)

; make_syn (matches Coq: Definition make_syn)
(define-fun make_syn ((isn Int)) TCPSegment
  true)

; make_syn_ack (matches Coq: Definition make_syn_ack)
(define-fun make_syn_ack () TCPSegment true)

; make_ack (matches Coq: Definition make_ack)
(define-fun make_ack () TCPSegment true)

; handshake_complete (matches Coq: Definition handshake_complete)
(define-fun handshake_complete ((hs HandshakeState)) Bool
  true)

; valid_syn_segment (matches Coq: Definition valid_syn_segment)
(define-fun valid_syn_segment ((seg TCPSegment) (s TCPState)) Bool
  true)

; handshake_sequence_valid (matches Coq: Definition handshake_sequence_valid)
(define-fun handshake_sequence_valid () Prop true)

; andb_true_iff (matches Coq: Lemma andb_true_iff)
(assert (= true true)) ; andb_true_iff [untranslatable]

; orb_false_iff (matches Coq: Lemma orb_false_iff)
(assert (= true true)) ; orb_false_iff [untranslatable]

; negb_true_iff (matches Coq: Lemma negb_true_iff)
(assert (= true true)) ; negb_true_iff [untranslatable]

; NET_001 (matches Coq: Theorem NET_001)
(assert (= (net_security_sound riina_net_sec) true)) ; NET_001

; NET_002 (matches Coq: Theorem NET_002)
(assert (= (net_reliability_sound riina_net_rel) true)) ; NET_002

; NET_003 (matches Coq: Theorem NET_003)
(assert (= (net_stack_verified riina_net_stack) true)) ; NET_003

; NET_004 (matches Coq: Theorem NET_004)
(assert (= (ns_packet_validation riina_net_sec) true)) ; NET_004

; NET_005 (matches Coq: Theorem NET_005)
(assert (= (ns_protocol_compliance riina_net_sec) true)) ; NET_005

; NET_006 (matches Coq: Theorem NET_006)
(assert (= (ns_firewall_enforced riina_net_sec) true)) ; NET_006

; NET_007 (matches Coq: Theorem NET_007)
(assert (= (ns_encryption_in_transit riina_net_sec) true)) ; NET_007

; NET_008 (matches Coq: Theorem NET_008)
(assert (= (nr_congestion_control riina_net_rel) true)) ; NET_008

; NET_009 (matches Coq: Theorem NET_009)
(assert (= (nr_flow_control riina_net_rel) true)) ; NET_009

; NET_010 (matches Coq: Theorem NET_010)
(assert (= (nr_error_detection riina_net_rel) true)) ; NET_010

; NET_011 (matches Coq: Theorem NET_011)
(assert (= (nr_retransmission riina_net_rel) true)) ; NET_011

; NET_012 (matches Coq: Theorem NET_012)
(assert (= (vns_rfc_compliant riina_net_stack) true)) ; NET_012

; NET_013 (matches Coq: Theorem NET_013)
(assert (= (vns_formally_verified riina_net_stack) true)) ; NET_013

; NET_014 (matches Coq: Theorem NET_014)
(assert (= true true)) ; NET_014 [untranslatable]

; NET_015 (matches Coq: Theorem NET_015)
(assert (= true true)) ; NET_015 [untranslatable]

; NET_016 (matches Coq: Theorem NET_016)
(assert (= true true)) ; NET_016 [untranslatable]

; NET_017 (matches Coq: Theorem NET_017)
(assert (= true true)) ; NET_017 [untranslatable]

; NET_018 (matches Coq: Theorem NET_018)
(assert (= true true)) ; NET_018 [untranslatable]

; NET_019 (matches Coq: Theorem NET_019)
(assert (= true true)) ; NET_019 [untranslatable]

; NET_020 (matches Coq: Theorem NET_020)
(assert (= true true)) ; NET_020 [untranslatable]

; NET_021 (matches Coq: Theorem NET_021)
(assert (= true true)) ; NET_021 [untranslatable]

; NET_022 (matches Coq: Theorem NET_022)
(assert (= true true)) ; NET_022 [untranslatable]

; NET_023 (matches Coq: Theorem NET_023)
(assert (= true true)) ; NET_023 [untranslatable]

; NET_024 (matches Coq: Theorem NET_024)
(assert (= true true)) ; NET_024 [untranslatable]

; NET_025 (matches Coq: Theorem NET_025)
(assert (= true true)) ; NET_025 [untranslatable]

; NET_026 (matches Coq: Theorem NET_026)
(assert (= true true)) ; NET_026 [untranslatable]

; NET_027 (matches Coq: Theorem NET_027)
(assert (= true true)) ; NET_027 [untranslatable]

; NET_028 (matches Coq: Theorem NET_028)
(assert (= true true)) ; NET_028 [untranslatable]

; NET_029 (matches Coq: Theorem NET_029)
(assert (= true true)) ; NET_029 [untranslatable]

; NET_030 (matches Coq: Theorem NET_030)
(assert (= true true)) ; NET_030 [untranslatable]

; NET_031 (matches Coq: Theorem NET_031)
(assert (= true true)) ; NET_031 [untranslatable]

; NET_032 (matches Coq: Theorem NET_032)
(assert (and (= (net_stack_verified riina_net_stack) true) (= (vns_rfc_compliant riina_net_stack) true))) ; NET_032

; NET_033 (matches Coq: Theorem NET_033)
(assert (and (= (ns_packet_validation riina_net_sec) true) (= (ns_encryption_in_transit riina_net_sec) true))) ; NET_033

; NET_034 (matches Coq: Theorem NET_034)
(assert (and (= (nr_congestion_control riina_net_rel) true) (= (nr_error_detection riina_net_rel) true))) ; NET_034

; NET_035_complete (matches Coq: Theorem NET_035_complete)
(assert (= true true)) ; NET_035_complete [untranslatable]

; TCP_001_state_eq_refl (matches Coq: Theorem TCP_001_state_eq_refl)
(assert (forall ((s TCPState)) (= (tcp_state_eqb s s) true))) ; TCP_001_state_eq_refl

; TCP_002_state_eq_sym (matches Coq: Theorem TCP_002_state_eq_sym)
(assert (= true true)) ; TCP_002_state_eq_sym [untranslatable]

; TCP_003_state_decidable (matches Coq: Theorem TCP_003_state_decidable)
(assert (= true true)) ; TCP_003_state_decidable [untranslatable]

; TCP_004_closed_not_connected (matches Coq: Theorem TCP_004_closed_not_connected)
(assert (= (is_connection_state CLOSED) false)) ; TCP_004_closed_not_connected

; TCP_005_listen_not_connected (matches Coq: Theorem TCP_005_listen_not_connected)
(assert (= (is_connection_state LISTEN) false)) ; TCP_005_listen_not_connected

; TCP_006_established_is_connected (matches Coq: Theorem TCP_006_established_is_connected)
(assert (= (is_connection_state ESTABLISHED) true)) ; TCP_006_established_is_connected

; TCP_007_established_allows_data (matches Coq: Theorem TCP_007_established_allows_data)
(assert (= (is_data_state ESTABLISHED) true)) ; TCP_007_established_allows_data

; TCP_008_syn_sent_no_data (matches Coq: Theorem TCP_008_syn_sent_no_data)
(assert (= (is_data_state SYN_SENT) false)) ; TCP_008_syn_sent_no_data

; TCP_009_closed_terminal (matches Coq: Theorem TCP_009_closed_terminal)
(assert (= (is_terminal_state CLOSED) true)) ; TCP_009_closed_terminal

; TCP_010_time_wait_terminal (matches Coq: Theorem TCP_010_time_wait_terminal)
(assert (= (is_terminal_state TIME_WAIT) true)) ; TCP_010_time_wait_terminal

; TCP_011_established_not_terminal (matches Coq: Theorem TCP_011_established_not_terminal)
(assert (= (is_terminal_state ESTABLISHED) false)) ; TCP_011_established_not_terminal

; TCP_012_data_implies_connection (matches Coq: Theorem TCP_012_data_implies_connection)
(assert (= true true)) ; TCP_012_data_implies_connection [untranslatable]

; TCP_013_terminal_cases (matches Coq: Theorem TCP_013_terminal_cases)
(assert (= true true)) ; TCP_013_terminal_cases [untranslatable]

; TCP_014_eleven_states (matches Coq: Theorem TCP_014_eleven_states)
(assert (= true true)) ; TCP_014_eleven_states [untranslatable]

; TCP_015_syn_only_setup (matches Coq: Theorem TCP_015_syn_only_setup)
(assert (= true true)) ; TCP_015_syn_only_setup [untranslatable]

; TCP_016_listen_syn_transition (matches Coq: Theorem TCP_016_listen_syn_transition)
(assert (= true true)) ; TCP_016_listen_syn_transition [untranslatable]

; TCP_017_syn_sent_synack_transition (matches Coq: Theorem TCP_017_syn_sent_synack_transition)
(assert (= true true)) ; TCP_017_syn_sent_synack_transition [untranslatable]

; TCP_018_syn_recv_ack_transition (matches Coq: Theorem TCP_018_syn_recv_ack_transition)
(assert (= true true)) ; TCP_018_syn_recv_ack_transition [untranslatable]

; TCP_019_established_fin_transition (matches Coq: Theorem TCP_019_established_fin_transition)
(assert (= true true)) ; TCP_019_established_fin_transition [untranslatable]

; TCP_020_last_ack_transition (matches Coq: Theorem TCP_020_last_ack_transition)
(assert (= true true)) ; TCP_020_last_ack_transition [untranslatable]

; PARSE_001_safe_read_sufficient (matches Coq: Theorem PARSE_001_safe_read_sufficient)
(assert (= true true)) ; PARSE_001_safe_read_sufficient [untranslatable]

; PARSE_002_safe_read_insufficient (matches Coq: Theorem PARSE_002_safe_read_insufficient)
(assert (= true true)) ; PARSE_002_safe_read_insufficient [untranslatable]

; PARSE_003_advance_preserves_capacity (matches Coq: Theorem PARSE_003_advance_preserves_capacity)
(assert (= true true)) ; PARSE_003_advance_preserves_capacity [untranslatable]

; PARSE_004_advance_increases_position (matches Coq: Theorem PARSE_004_advance_increases_position)
(assert (= true true)) ; PARSE_004_advance_increases_position [untranslatable]

; PARSE_005_tcp_min_header (matches Coq: Theorem PARSE_005_tcp_min_header)
(assert (= TCP_MIN_HEADER 20)) ; PARSE_005_tcp_min_header

; PARSE_006_tcp_max_header (matches Coq: Theorem PARSE_006_tcp_max_header)
(assert (= TCP_MAX_HEADER 60)) ; PARSE_006_tcp_max_header

; PARSE_007_ip_min_header (matches Coq: Theorem PARSE_007_ip_min_header)
(assert (= IP_MIN_HEADER 20)) ; PARSE_007_ip_min_header

; PARSE_008_eth_min_frame (matches Coq: Theorem PARSE_008_eth_min_frame)
(assert (= ETH_MIN_FRAME 14)) ; PARSE_008_eth_min_frame

; PARSE_009_combined_min (matches Coq: Theorem PARSE_009_combined_min)
(assert (= true true)) ; PARSE_009_combined_min [untranslatable]

; PARSE_010_safe_read_monotonic (matches Coq: Theorem PARSE_010_safe_read_monotonic)
(assert (= true true)) ; PARSE_010_safe_read_monotonic [untranslatable]

; PARSE_011_empty_buffer_zero_read (matches Coq: Theorem PARSE_011_empty_buffer_zero_read)
(assert (= true true)) ; PARSE_011_empty_buffer_zero_read [untranslatable]

; PARSE_012_at_capacity_no_read (matches Coq: Theorem PARSE_012_at_capacity_no_read)
(assert (= true true)) ; PARSE_012_at_capacity_no_read [untranslatable]

; PARSE_013_safe_write_eq_read (matches Coq: Theorem PARSE_013_safe_write_eq_read)
(assert (= true true)) ; PARSE_013_safe_write_eq_read [untranslatable]

; PARSE_014_advance_compose (matches Coq: Theorem PARSE_014_advance_compose)
(assert (= true true)) ; PARSE_014_advance_compose [untranslatable]

; PARSE_015_advance_preserves_data (matches Coq: Theorem PARSE_015_advance_preserves_data)
(assert (= true true)) ; PARSE_015_advance_preserves_data [untranslatable]

; CONG_001_initial_cwnd (matches Coq: Theorem CONG_001_initial_cwnd)
(assert (= true true)) ; CONG_001_initial_cwnd [untranslatable]

; CONG_002_initial_ssthresh (matches Coq: Theorem CONG_002_initial_ssthresh)
(assert (= true true)) ; CONG_002_initial_ssthresh [untranslatable]

; CONG_003_exclusive_phases (matches Coq: Theorem CONG_003_exclusive_phases)
(assert (= true true)) ; CONG_003_exclusive_phases [untranslatable]

; CONG_004_cong_avoid_not_slow (matches Coq: Theorem CONG_004_cong_avoid_not_slow)
(assert (= true true)) ; CONG_004_cong_avoid_not_slow [untranslatable]

; CONG_005_aimd_decrease_halves (matches Coq: Theorem CONG_005_aimd_decrease_halves)
(assert (= true true)) ; CONG_005_aimd_decrease_halves [untranslatable]

; CONG_006_aimd_decrease_ssthresh (matches Coq: Theorem CONG_006_aimd_decrease_ssthresh)
(assert (= true true)) ; CONG_006_aimd_decrease_ssthresh [untranslatable]

; CONG_007_aimd_decrease_rtt (matches Coq: Theorem CONG_007_aimd_decrease_rtt)
(assert (= true true)) ; CONG_007_aimd_decrease_rtt [untranslatable]

; CONG_008_aimd_decrease_rto (matches Coq: Theorem CONG_008_aimd_decrease_rto)
(assert (= true true)) ; CONG_008_aimd_decrease_rto [untranslatable]

; CONG_009_slow_start_increase (matches Coq: Theorem CONG_009_slow_start_increase)
(assert (= true true)) ; CONG_009_slow_start_increase [untranslatable]

; CONG_010_increase_ssthresh (matches Coq: Theorem CONG_010_increase_ssthresh)
(assert (= true true)) ; CONG_010_increase_ssthresh [untranslatable]

; CONG_011_fast_retransmit_thresh (matches Coq: Theorem CONG_011_fast_retransmit_thresh)
(assert (= FAST_RETRANSMIT_THRESH 3)) ; CONG_011_fast_retransmit_thresh

; CONG_012_decrease_phase (matches Coq: Theorem CONG_012_decrease_phase)
(assert (= true true)) ; CONG_012_decrease_phase [untranslatable]

; CONG_013_min_cwnd_after_decrease (matches Coq: Theorem CONG_013_min_cwnd_after_decrease)
(assert (= true true)) ; CONG_013_min_cwnd_after_decrease [untranslatable]

; CONG_014_increase_rto (matches Coq: Theorem CONG_014_increase_rto)
(assert (= true true)) ; CONG_014_increase_rto [untranslatable]

; CONG_015_initial_slow_start (matches Coq: Theorem CONG_015_initial_slow_start)
(assert (= true true)) ; CONG_015_initial_slow_start [untranslatable]

; HS_001_make_syn_flag (matches Coq: Theorem HS_001_make_syn_flag)
(assert (= true true)) ; HS_001_make_syn_flag [untranslatable]

; HS_002_make_syn_no_ack (matches Coq: Theorem HS_002_make_syn_no_ack)
(assert (= true true)) ; HS_002_make_syn_no_ack [untranslatable]

; HS_003_make_synack_flags (matches Coq: Theorem HS_003_make_synack_flags)
(assert (= true true)) ; HS_003_make_synack_flags [untranslatable]

; HS_004_make_ack_flags (matches Coq: Theorem HS_004_make_ack_flags)
(assert (= true true)) ; HS_004_make_ack_flags [untranslatable]

; HS_005_init_not_complete (matches Coq: Theorem HS_005_init_not_complete)
(assert (= true true)) ; HS_005_init_not_complete [untranslatable]

; HS_006_complete_step (matches Coq: Theorem HS_006_complete_step)
(assert (= true true)) ; HS_006_complete_step [untranslatable]

; HS_007_syn_preserves_isn (matches Coq: Theorem HS_007_syn_preserves_isn)
(assert (= true true)) ; HS_007_syn_preserves_isn [untranslatable]

; HS_008_synack_ack_num (matches Coq: Theorem HS_008_synack_ack_num)
(assert (= true true)) ; HS_008_synack_ack_num [untranslatable]

; HS_009_ack_ack_num (matches Coq: Theorem HS_009_ack_ack_num)
(assert (= true true)) ; HS_009_ack_ack_num [untranslatable]

; HS_010_syn_zero_data (matches Coq: Theorem HS_010_syn_zero_data)
(assert (= true true)) ; HS_010_syn_zero_data [untranslatable]

; SEQ_001_seq_space (matches Coq: Theorem SEQ_001_seq_space)
(assert (= SEQ_SPACE 4294967296)) ; SEQ_001_seq_space

; SEQ_002_seq_le_refl (matches Coq: Theorem SEQ_002_seq_le_refl)
(assert (= true true)) ; SEQ_002_seq_le_refl [untranslatable]

; SEQ_003_next_seq_advance (matches Coq: Theorem SEQ_003_next_seq_advance)
(assert (= true true)) ; SEQ_003_next_seq_advance [untranslatable]

; SEQ_004_seq_in_window_start (matches Coq: Theorem SEQ_004_seq_in_window_start)
(assert (= true true)) ; SEQ_004_seq_in_window_start [untranslatable]

; SEQ_005_valid_ack_equal (matches Coq: Theorem SEQ_005_valid_ack_equal)
(assert (= true true)) ; SEQ_005_valid_ack_equal [untranslatable]

; SEQ_006_seq_gt_def (matches Coq: Theorem SEQ_006_seq_gt_def)
(assert (= true true)) ; SEQ_006_seq_gt_def [untranslatable]

; SEQ_007_seq_ge_def (matches Coq: Theorem SEQ_007_seq_ge_def)
(assert (= true true)) ; SEQ_007_seq_ge_def [untranslatable]

; SEQ_008_next_seq_zero (matches Coq: Theorem SEQ_008_next_seq_zero)
(assert (= true true)) ; SEQ_008_next_seq_zero [untranslatable]

; SEQ_009_seq_mod (matches Coq: Theorem SEQ_009_seq_mod)
(assert (= true true)) ; SEQ_009_seq_mod [untranslatable]

; SEQ_010_seq_le_zero (matches Coq: Theorem SEQ_010_seq_le_zero)
(assert (= (seq_le 0 0) true)) ; SEQ_010_seq_le_zero

; SOCK_001_new_socket_unbound (matches Coq: Theorem SOCK_001_new_socket_unbound)
(assert (= (sock_state new_socket) SockUnbound)) ; SOCK_001_new_socket_unbound

; SOCK_002_new_socket_no_local (matches Coq: Theorem SOCK_002_new_socket_no_local)
(assert (= (sock_local_port new_socket) None)) ; SOCK_002_new_socket_no_local

; SOCK_003_new_socket_no_remote (matches Coq: Theorem SOCK_003_new_socket_no_remote)
(assert (= (sock_remote_port new_socket) None)) ; SOCK_003_new_socket_no_remote

; SOCK_004_new_socket_closed (matches Coq: Theorem SOCK_004_new_socket_closed)
(assert (= (sock_tcp_state new_socket) CLOSED)) ; SOCK_004_new_socket_closed

; SOCK_005_sock_state_eq_refl (matches Coq: Theorem SOCK_005_sock_state_eq_refl)
(assert (= true true)) ; SOCK_005_sock_state_eq_refl [untranslatable]

; SOCK_006_unbound_cannot_send (matches Coq: Theorem SOCK_006_unbound_cannot_send)
(assert (= true true)) ; SOCK_006_unbound_cannot_send [untranslatable]

; SOCK_007_unbound_cannot_recv (matches Coq: Theorem SOCK_007_unbound_cannot_recv)
(assert (= true true)) ; SOCK_007_unbound_cannot_recv [untranslatable]

; SOCK_008_new_socket_cannot_send (matches Coq: Theorem SOCK_008_new_socket_cannot_send)
(assert (= (socket_can_send new_socket) false)) ; SOCK_008_new_socket_cannot_send

; SOCK_009_new_socket_cannot_recv (matches Coq: Theorem SOCK_009_new_socket_cannot_recv)
(assert (= (socket_can_recv new_socket) false)) ; SOCK_009_new_socket_cannot_recv

; SOCK_010_default_no_reuse (matches Coq: Theorem SOCK_010_default_no_reuse)
(assert (= (opt_reuse_addr default_sock_opts) false)) ; SOCK_010_default_no_reuse

; TCP_021_fin_wait1_fin_ack (matches Coq: Theorem TCP_021_fin_wait1_fin_ack)
(assert (= true true)) ; TCP_021_fin_wait1_fin_ack [untranslatable]

; TCP_022_fin_wait1_fin_only (matches Coq: Theorem TCP_022_fin_wait1_fin_only)
(assert (= true true)) ; TCP_022_fin_wait1_fin_only [untranslatable]

; TCP_023_fin_wait1_ack_only (matches Coq: Theorem TCP_023_fin_wait1_ack_only)
(assert (= true true)) ; TCP_023_fin_wait1_ack_only [untranslatable]

; TCP_024_fin_wait2_fin (matches Coq: Theorem TCP_024_fin_wait2_fin)
(assert (= true true)) ; TCP_024_fin_wait2_fin [untranslatable]

; TCP_025_closing_ack (matches Coq: Theorem TCP_025_closing_ack)
(assert (= true true)) ; TCP_025_closing_ack [untranslatable]

; TCP_026_time_wait_stable (matches Coq: Theorem TCP_026_time_wait_stable)
(assert (= true true)) ; TCP_026_time_wait_stable [untranslatable]

; TCP_027_close_wait_stable (matches Coq: Theorem TCP_027_close_wait_stable)
(assert (= true true)) ; TCP_027_close_wait_stable [untranslatable]

; TCP_028_syn_recv_rst (matches Coq: Theorem TCP_028_syn_recv_rst)
(assert (= true true)) ; TCP_028_syn_recv_rst [untranslatable]

; TCP_029_connection_subset (matches Coq: Theorem TCP_029_connection_subset)
(assert (= true true)) ; TCP_029_connection_subset [untranslatable]

; TCP_030_established_data_stable (matches Coq: Theorem TCP_030_established_data_stable)
(assert (= true true)) ; TCP_030_established_data_stable [untranslatable]

; COMP_001_verified_security (matches Coq: Theorem COMP_001_verified_security)
(assert (= true true)) ; COMP_001_verified_security [untranslatable]

; COMP_002_verified_reliability (matches Coq: Theorem COMP_002_verified_reliability)
(assert (= true true)) ; COMP_002_verified_reliability [untranslatable]

; COMP_003_handshake_valid (matches Coq: Theorem COMP_003_handshake_valid)
(assert (= true true)) ; COMP_003_handshake_valid [untranslatable]

; COMP_004_established_data_transfer (matches Coq: Theorem COMP_004_established_data_transfer)
(assert (= true true)) ; COMP_004_established_data_transfer [untranslatable]

; COMP_005_cong_fairness (matches Coq: Theorem COMP_005_cong_fairness)
(assert (= true true)) ; COMP_005_cong_fairness [untranslatable]

; COMP_006_tcp_parse_safety (matches Coq: Theorem COMP_006_tcp_parse_safety)
(assert (= true true)) ; COMP_006_tcp_parse_safety [untranslatable]

; COMP_007_frame_parse_safety (matches Coq: Theorem COMP_007_frame_parse_safety)
(assert (= true true)) ; COMP_007_frame_parse_safety [untranslatable]

; COMP_008_riina_complete (matches Coq: Theorem COMP_008_riina_complete)
(assert (and (= (net_stack_verified riina_net_stack) true) (= (net_security_sound riina_net_sec) true) (= (net_reliability_sound riina_net_rel) true) (= (vns_rfc_compliant riina_net_stack) true) (= (vns_formally_verified riina_net_stack) true))) ; COMP_008_riina_complete

; COMP_009_tcp_deterministic (matches Coq: Theorem COMP_009_tcp_deterministic)
(assert (= true true)) ; COMP_009_tcp_deterministic [untranslatable]

; COMP_010_seq_wraparound (matches Coq: Theorem COMP_010_seq_wraparound)
(assert (= true true)) ; COMP_010_seq_wraparound [untranslatable]

; Verify all assertions are satisfiable
(check-sat)
(exit)
